TYPE : Vertex Cover
DIMENSION: 38
EDGE_DATA_SECTION:
0 4
0 19
0 24
0 28
0 31
1 5
1 9
1 10
1 11
1 14
1 20
1 21
1 22
1 32
1 34
1 37
2 9
2 11
2 17
2 18
2 19
2 37
3 6
3 9
3 11
3 19
3 20
3 21
3 25
3 27
3 30
3 32
3 33
3 36
4 5
4 8
4 10
4 14
4 19
4 20
4 27
4 30
4 35
5 9
5 12
5 13
5 20
5 24
5 25
5 26
5 28
5 32
5 33
6 7
6 9
6 10
6 13
6 17
6 29
6 30
6 37
7 9
7 12
7 13
7 16
7 17
7 18
7 20
7 22
7 33
8 11
8 12
8 15
8 17
8 24
8 25
9 10
9 15
9 17
9 22
9 27
9 32
9 33
9 36
10 13
10 20
10 27
10 29
11 15
11 16
11 17
11 26
12 13
12 23
12 36
13 15
13 16
13 23
13 28
13 29
13 32
13 34
13 35
13 36
14 19
14 32
14 34
14 36
15 26
16 17
16 18
16 19
16 20
16 27
16 28
16 29
16 31
16 35
17 21
17 23
17 27
17 31
17 35
18 23
18 28
18 36
19 20
19 21
19 24
19 28
19 29
19 31
19 33
19 34
20 21
20 28
20 30
20 31
20 32
20 33
21 22
21 26
21 27
21 29
21 34
21 37
22 23
22 29
22 30
22 33
23 25
23 29
23 34
23 37
24 31
24 34
24 37
25 29
27 28
27 30
27 31
27 32
28 30
28 32
28 37
29 33
30 32
31 34
34 36
36 37
-1
VERTEX_DEGREE:
5.0 11.0 6.0 12.0 10.0 12.0 9.0 10.0 7.0 14.0 8.0 8.0 6.0 14.0 6.0 5.0 12.0 12.0 6.0 14.0 14.0 11.0 8.0 9.0 7.0 5.0 4.0 11.0 11.0 10.0 8.0 8.0 10.0 8.0 9.0 4.0 8.0 8.0
VERTEX_COVER:
0 1 2 3 4 5 7 8 9 10 11 13 16 17 19 21 23 26 28 29 30 31 32 33 34 36 37
EOF
